set C :=
flour
macaroni
cereal
cornflakes
cornmeal
grits
rice
oats
whitebread
wheatbread
ryebread
poundcake
crackers
milk
evapmild
butter
margarine
eggs
cheese
cream
peanutbutter
mayonnaise
crisco
lard
sirloinsteak
roundsteak
ribroast
chuckroast
plate
liver
lambleg
lambchops
porkchops
porkroast
bacon
ham
saltpork
chicken
veal
salmon
apples
bananas
lemons
oranges
greenbeans
cabbage
carrots
celery
lettuce
onions
potatoes
spinach
sweetpotato
peaches
pears
pineapple
asparagus
cannedgrbn
porkbeans
corn
peas
tomatoes
tomatosoup
driedpeach
prunes
raisins
driedpeas
limabeans
navybeans
coffee
tea
cocoa
chocolate
sugar
cornsirup
molasses
stawberry
;

set N :=
calories       /* Calories, unit = 1000 */
protein        /* Protein, unit = grams */
calcium        /* Calcium, unit = grams */
iron           /* Iron, unit = milligrams */
vitaminA       /* Vitamin A, unit = 1000 International Units */
thiamine       /* Thiamine, Vit. B1, unit = milligrams */
riboflavin     /* Riboflavin, Vit. B2, unit = milligrams */
niacin         /* Niacin (Nicotinic Acid), unit = milligrams */
ascorbicAcid   /* Ascorbic Acid, Vit. C, unit = milligrams */
;

param Data
:             calories protein  calcium   iron :=
#           (1000)  (grams)  (grams)   (mg.)
flour         44.7     1411     2.0      365
macaroni      11.6      418      .7       54
cereal        11.8      377    14.4      175
cornflakes    11.4      252      .1       56
cornmeal      36.0      897     1.7       99
grits         28.6      680      .8       80
rice          21.2      460      .6       41
oats          25.3      907     5.1      341
whitebread    15.6      488     2.5      115
wheatbread    12.2      484     2.7      125
ryebread      12.4      439     1.1       82
poundcake     8.0      130      .4       31
crackers      12.5      288      .5       50
milk          6.1      310    10.5       18
evapmild      8.4      422    15.1        9
butter        10.8        9      .2        3
margarine     20.6       17      .6        6
eggs           2.9      238     1.0       52
cheese         7.4      448    16.4       19
cream          3.5       49     1.7        3
peanutbutter  15.7      661     1.0       48
mayonnaise     8.6       18      .2        8
crisco        20.1        0      .0        0
lard          41.7        0      .0        0
sirloinsteak   2.9      166      .1       34
roundsteak     2.2      214      .1       32
ribroast       3.4      213      .1       33
chuckroast     3.6      309      .2       46
plate          8.5      404      .2       62
liver          2.2      333      .2      139
lambleg        3.1      245      .1       20
lambchops      3.3      140      .1       15
porkchops      3.5      196      .2       80
porkroast      4.4      249      .3       37
bacon         10.4      152      .2       23
ham            6.7      212      .2       31
saltpork      18.8      164      .1       26
chicken        1.8      184      .1       30
veal           1.7      156      .1       24
salmon         5.8      705     6.8       45
apples         5.8       27      .5       36
bananas        4.9       60      .4       30
lemons         1.0       21      .5       14
oranges        2.2       40     1.1       18
greenbeans     2.4      138     3.7       80
cabbage        2.6      125     4.0       36
carrots        2.7       73     2.8       43
celery          .9       51     3.0       23
lettuce         .4       27     1.1       22
onions         5.8      166     3.8       59
potatoes      14.3      336     1.8      118
spinach        1.1      106      .0      138
sweetpotato    9.6      138     2.7       54
peaches        3.7       20      .4       10
pears          3.0        8      .3        8
pineapple      2.4       16      .4        8
asparagus       .4       33      .3       12
cannedgrbn     1.0       54     2.0       65
porkbeans      7.5      364     4.0      134
corn           5.2      136      .2       16
peas           2.3      136      .6       45
tomatoes       1.3       63      .7       38
tomatosoup     1.6       71      .6       43
driedpeach     8.5       87     1.7      173
prunes        12.8       99     2.5      154
raisins       13.5      104     2.5      136
driedpeas     20.0     1367     4.2      345
limabeans     17.4     1055     3.7      459
navybeans     26.9     1691    11.4      792
coffee          .0        0      .0        0
tea             .0        0      .0        0
cocoa          8.7      237     3.0       72
chocolate      8.0       77     1.3       39
sugar         34.9        0      .0        0
cornsirup     14.7        0      .5       74
molasses       9.0        0    10.3      244
stawberry      6.4       11      .4        7

:           vitaminA thiamine riboflavin  niacin  ascorbicAcid :=
#          (1000 IU)  (mg.)      (mg.)     (mg.)     (mg.)
flour           .0    55.4       33.3       441         0
macaroni        .0     3.2        1.9        68         0
cereal          .0    14.4        8.8       114         0
cornflakes      .0    13.5        2.3        68         0
cornmeal      30.9    17.4        7.9       106         0
grits           .0    10.6        1.6       110         0
rice            .0     2.0        4.8        60         0
oats            .0    37.1        8.9        64         0
whitebread      .0    13.8        8.5       126         0
wheatbread      .0    13.9        6.4       160         0
ryebread        .0     9.9        3.0        66         0
poundcake     18.9     2.8        3.0        17         0
crackers        .0      .0         .0         0         0
milk          16.8     4.0       16.0         7       177
evapmild      26.0     3.0       23.5        11        60
butter        44.2      .0         .2         2         0
margarine     55.8      .2         .0         0         0
eggs          18.6     2.8        6.5         1         0
cheese        28.1      .8       10.3         4         0
cream         16.9      .6        2.5         0        17
peanutbutter    .0     9.6        8.1       471         0
mayonnaise     2.7      .4         .5         0         0
crisco          .0      .0         .0         0         0
lard            .2      .0         .5         5         0
sirloinsteak    .2     2.1        2.9        69         0
roundsteak      .4     2.5        2.4        87         0
ribroast        .0      .0        2.0         0         0
chuckroast      .4     1.0        4.0       120         0
plate           .0      .9         .0         0         0
liver        169.2     6.4       50.8       316       525
lambleg         .0     2.8        3.0        86         0
lambchops       .0     1.7        2.7        54         0
porkchops       .0    17.4        2.7        60         0
porkroast       .0    18.2        3.6        79         0
bacon           .0     1.8        1.8        71         0
ham             .0     9.9        3.3        50         0
saltpork        .0     1.4        1.8         0         0
chicken         .1      .9        1.8        68        46
veal            .0     1.4        2.4        57         0
salmon         3.5     1.0        4.9       209         0
apples         7.3     3.6        2.7         5       544
bananas       17.4     2.5        3.5        28       498
lemons          .0      .5         .0         4       952
oranges       11.1     3.6        1.3        10      1993
greenbeans    69.0     4.3        5.8        37       862
cabbage        7.2     9.0        4.5        26      5369
carrots      188.5     6.1        4.3        89       608
celery          .9     1.4        1.4         9       313
lettuce      112.4     1.8        3.4        11       449
onions        16.6     4.7        5.9        21      1184
potatoes       6.7    29.4        7.1       198      2522
spinach      918.4     5.7       13.8        33      2755
sweetpotato  290.7     8.4        5.4        83      1912
peaches       21.5      .5        1.0        31       196
pears           .8      .8         .8         5        81
pineapple      2.0     2.8         .8         7       399
asparagus     16.3     1.4        2.1        17       272
cannedgrbn    53.9     1.6        4.3        32       431
porkbeans      3.5     8.3        7.7        56         0
corn          12.0     1.6        2.7        42       218
peas          34.9     4.9        2.5        37       370
tomatoes      53.2     3.4        2.5        36      1253
tomatosoup    57.9     3.5        2.4        67       862
driedpeach    86.8     1.2        4.3        55        57
prunes        85.7     3.9        4.3        65       257
raisins        4.5     6.3        1.4        24       136
driedpeas      2.9    28.7       18.4       162         0
limabeans      5.1    26.9       38.2        93         0
navybeans       .0    38.4       24.6       217         0
coffee          .0     4.0        5.1        50         0
tea             .0      .0        2.3        42         0
cocoa           .0     2.0       11.9        40         0
chocolate       .0      .9        3.4        14         0
sugar           .0      .0         .0         0         0
cornsirup       .0      .0         .0         5         0
molasses        .0     1.9        7.5       146         0
stawberry       .2      .2         .4         3         0
;

param Allowance :=
calories       3
protein       70
calcium         .8
iron          12
vitaminA       5
thiamine       1.8
riboflavin     2.7
niacin        18
ascorbicAcid  75
;

